c A SAT instance generated from a 2-CNF formula that had 77 clauses and 14 variables
p cnf 14 77
-12 -9 0
-2 -4 0
-7 13 0
-3 12 0
-8 -10 0
-3 -2 0
-5 -4 0
6 1 0
-5 4 0
-11 1 0
-6 -5 0
12 -2 0
3 4 0
11 6 0
8 1 0
-12 14 0
3 -6 0
9 2 0
-13 6 0
14 3 0
-7 14 0
2 14 0
-8 -10 0
-6 11 0
-8 -5 0
13 -3 0
-2 14 0
13 -12 0
-8 -13 0
-5 -9 0
-12 10 0
12 -5 0
-7 13 0
-11 -2 0
9 3 0
3 -7 0
8 -2 0
12 -8 0
-8 5 0
-7 -13 0
1 -14 0
12 6 0
5 10 0
-1 -12 0
-4 -13 0
-9 -6 0
-11 5 0
-6 11 0
8 -1 0
8 -3 0
4 11 0
4 -10 0
14 -11 0
-14 7 0
-5 6 0
13 8 0
-11 1 0
-1 4 0
1 -12 0
5 10 0
13 -5 0
-5 11 0
4 -7 0
6 -1 0
1 14 0
-12 9 0
9 1 0
-10 9 0
-6 1 0
-5 2 0
7 3 0
6 4 0
11 5 0
7 5 0
12 -4 0
-13 -7 0
7 -2 0
